{'code': [1, 2, 19, 5, 7, 11, 9, 7, 16, 10, 14, 0, 5, 7, 10, 16, 18, 6, 15, 3, 14, 6, 6, 17, 19, 0, 
0, 7, 12, 4, 19, 3, 13, 18, 19, 9, 12, 11, 17, 16, 7, 18, 3, 14, 19, 6, 14, 3, 11, 9, 17, 11, 12, 12
, 4, 3, 0, 0, 8, 10, 15, 14, 17, 15, 13, 2, 9, 12, 14, 2, 1, 4, 10, 0, 7, 15, 18, 17, 3, 5, 15, 18, 
13, 14, 0, 14, 8, 19, 13, 15, 19, 5, 2, 14, 5, 17, 18, 15, 17, 18, 14, 15, 12, 5, 8, 15, 9, 7, 13, 2
, 2, 2, 19, 4, 15, 11, 6, 9, 16, 2, 16, 18, 1, 1, 18, 12, 7, 16, 4, 10, 8, 19, 18, 16, 9, 8, 9, 18, 
11, 11, 15, 5, 10, 18, 4, 5, 6, 10, 1, 4, 7, 10, 1, 8, 4, 12, 8, 0, 17, 2, 19, 16, 9, 1, 14, 6, 10, 
0, 4, 6, 18, 9, 1, 6, 11, 16, 5, 11, 12, 16, 1, 3, 2, 15, 8, 10, 3, 15, 7, 13, 13, 8, 12, 3, 6, 0, 1
6, 4, 19, 5, 9, 6, 4, 15, 13, 16, 5, 13, 4, 1, 19, 2, 1, 11, 4, 6, 14, 0, 16, 17, 17, 11, 7, 8, 3, 1
3, 7, 1, 1, 6, 9, 8, 4, 19, 0, 12, 17, 7, 3, 6], 'route': None, 'mac': [[1, 7, 7, 0, 1, 8, 6, 0, 8, 
3, 1, 8], [7, 4, 1, 4, 2, 5, 6, 4, 6, 0, 3, 3, 4], [6, 4, 1, 0, 6, 3, 0, 0, 4, 2, 2], [5, 0, 0, 7, 3
, 7, 3, 9, 2, 6, 0], [7, 3, 4, 9, 2, 9, 5, 7, 4, 1, 8, 4, 5, 0], [1, 9, 0, 2, 4, 6, 7, 7, 1, 6, 0], 
[7, 7, 7, 3, 0, 1, 1, 4, 8, 0, 1, 5, 6, 9], [0, 4, 4, 6, 8, 1, 6, 1, 5, 5, 1, 3, 4], [7, 1, 0, 3, 3,
 6, 1, 8, 8, 1, 4], [3, 3, 2, 1, 8, 3, 4, 6, 1, 2, 5, 0], [8, 4, 5, 3, 8, 4, 2, 2, 0, 3], [4, 8, 3, 
8, 6, 6, 1, 7, 3, 4, 1], [1, 2, 8, 4, 1, 3, 1, 7, 0, 0, 2], [2, 0, 9, 0, 6, 8, 3, 6, 6, 2], [0, 0, 9
, 1, 4, 1, 1, 4, 3, 2, 0, 6], [7, 0, 2, 8, 7, 6, 6, 1, 0, 1, 3, 2, 0, 4], [1, 8, 2, 7, 4, 4, 0, 6, 1
, 9, 2, 2, 0], [5, 3, 4, 9, 2, 6, 8, 0, 9, 7, 5], [2, 0, 6, 9, 2, 0, 2, 1, 9, 4, 1, 1, 4], [3, 6, 1,
 2, 4, 0, 4, 0, 7, 8, 5, 1, 9]], 'wok': None}
